(set-info :origin "SVCOMP13 benchmarks generated by Arie Gurfinkel")
(set-info :status unsat)
(set-logic HORN)
(declare-fun cp-rel-bb.i
             (Real
              Real
              Real
              Real
              Real
              Real
              Real
              Real
              Real
              Real
              Real
              Real
              Real
              Real
              Real
              Real
              Real
              Real
              Real
              Real
              Real)
             Bool)
(declare-fun cp-rel-__UFO__0
             (Real
              Real
              Real
              Real
              Real
              Real
              Real
              Real
              Real
              Real
              Real
              Real
              Real
              Real
              Real
              Real
              Real
              Real
              Real
              Real
              Real
              Bool
              Real
              Bool
              Real
              Bool
              Real
              Real
              Real)
             Bool)
(declare-fun cp-rel-entry () Bool)
(declare-fun cp-rel-UnifiedReturnBlock () Bool)
(assert |cp-rel-entry|)
(assert (forall ((?A Real) (?B Real) (?C Real) (?D Real) (?E Real) (?F Real) (?G Real) (?H Real) (?I Real) (?J Real) (?K Real) (?L Real) (?M Real) (?N Real) (?O Real) (?P Real) (?Q Real) (?R Real) (?S Real) (?T Real) (?U Real) (?V Bool) )(let (($x296431 (|cp-rel-bb.i| ?A ?B ?C ?D ?E ?F ?G ?H ?I ?J ?K ?L ?M ?N ?O ?P ?Q ?R ?S ?T ?U)))
(let (($x548814 (= ?V true)))
(let (($x345704 (and |cp-rel-entry| (<= ?U 0.0) (>= ?T 0.0) (<= ?T 0.0) (>= ?S 0.0) (<= ?S 0.0) (>= ?R 0.0) (<= ?R 0.0) (>= ?Q 0.0) (<= ?Q 0.0) (>= ?P 0.0) (<= ?P 0.0) (>= ?O 0.0) (<= ?O 0.0) (>= ?N 456.0) (<= ?N 456.0) (>= ?M 123.0) (<= ?M 123.0) (>= ?L 0.0) (<= ?L 0.0) (>= ?K 0.0) (<= ?K 0.0) (>= ?J 0.0) (<= ?J 0.0) (>= ?I 0.0) (<= ?I 0.0) (>= ?H 0.0) (<= ?H 0.0) (>= ?G 0.0) (<= ?G 0.0) (>= ?F 0.0) (<= ?F 0.0) (>= ?E 0.0) (<= ?E 0.0) (>= ?D 0.0) (<= ?D 0.0) (>= ?C 0.0) (<= ?C 0.0) (>= ?B 0.0) (<= ?B 0.0) (>= ?A 0.0) (<= ?A 0.0) $x548814 (>= ?U 0.0))))
(=> $x345704 $x296431)))))
)
(assert (forall ((?A Real) (?B Real) (?C Real) (?D Real) (?E Real) (?F Real) (?G Real) (?H Real) (?I Real) (?J Real) (?K Real) (?L Real) (?M Real) (?N Real) (?O Real) (?P Real) (?Q Real) (?R Real) (?S Real) (?T Real) (?U Real) (?V Real) (?W Real) (?X Real) (?Y Real) (?Z Real) (?A1 Real) (?B1 Real) (?C1 Real) (?D1 Real) (?E1 Real) (?F1 Real) (?G1 Real) (?H1 Real) (?I1 Real) (?J1 Real) (?K1 Real) (?L1 Real) (?M1 Real) (?N1 Real) (?O1 Real) (?P1 Real) (?Q1 Bool) (?R1 Bool) (?S1 Bool) (?T1 Bool) (?U1 Bool) (?V1 Bool) (?W1 Bool) (?X1 Bool) (?Y1 Bool) (?Z1 Bool) (?A2 Bool) (?B2 Bool) (?C2 Bool) (?D2 Bool) (?E2 Bool) (?F2 Bool) (?G2 Bool) (?H2 Bool) (?I2 Bool) (?J2 Bool) (?K2 Bool) (?L2 Bool) (?M2 Bool) (?N2 Bool) (?O2 Bool) (?P2 Bool) (?Q2 Bool) (?R2 Bool) (?S2 Bool) (?T2 Bool) (?U2 Bool) (?V2 Bool) (?W2 Bool) (?X2 Bool) (?Y2 Bool) (?Z2 Bool) (?A3 Bool) (?B3 Bool) (?C3 Bool) (?D3 Bool) (?E3 Bool) (?F3 Bool) (?G3 Bool) (?H3 Bool) (?I3 Bool) (?J3 Bool) (?K3 Bool) (?L3 Bool) (?M3 Bool) (?N3 Bool) (?O3 Bool) (?P3 Bool) (?Q3 Bool) (?R3 Bool) (?S3 Bool) (?T3 Bool) (?U3 Bool) (?V3 Bool) (?W3 Bool) (?X3 Bool) (?Y3 Bool) (?Z3 Bool) (?A4 Bool) (?B4 Bool) (?C4 Bool) (?D4 Bool) (?E4 Bool) (?F4 Bool) (?G4 Bool) (?H4 Bool) (?I4 Bool) (?J4 Bool) (?K4 Bool) (?L4 Bool) (?M4 Bool) (?N4 Bool) (?O4 Bool) (?P4 Bool) (?Q4 Bool) (?R4 Bool) (?S4 Real) (?T4 Real) (?U4 Real) (?V4 Real) (?W4 Real) (?X4 Real) (?Y4 Real) (?Z4 Real) (?A5 Real) (?B5 Real) (?C5 Real) (?D5 Real) )(let (($x233125 (|cp-rel-bb.i| ?V ?W ?X ?Y ?Z ?A1 ?B1 ?C1 ?D1 ?E1 ?F1 ?G1 ?H1 ?I1 ?J1 ?K1 ?L1 ?M1 ?N1 ?O1 ?P1)))
(let (($x155188 (not ?D2)))
(let (($x82383 (or $x155188 ?E2)))
(let (($x41133 (not ?R2)))
(let (($x213259 (or $x41133 ?S2)))
(let (($x923152 (not ?F3)))
(let (($x193064 (or $x923152 ?G3)))
(let (($x925964 (>= ?P1 ?U)))
(let (($x586379 (<= ?P1 ?U)))
(let (($x879963 (>= ?O1 ?T)))
(let (($x106048 (<= ?O1 ?T)))
(let (($x220193 (>= ?N1 ?S)))
(let (($x407415 (<= ?N1 ?S)))
(let (($x910038 (>= ?L1 ?Q)))
(let (($x255205 (<= ?L1 ?Q)))
(let (($x869241 (>= ?K1 ?P)))
(let (($x175804 (<= ?K1 ?P)))
(let (($x820723 (>= ?I1 ?N)))
(let (($x539325 (<= ?I1 ?N)))
(let (($x135993 (>= ?H1 ?M)))
(let (($x121201 (<= ?H1 ?M)))
(let (($x509229 (>= ?F1 ?K)))
(let (($x927737 (<= ?F1 ?K)))
(let (($x642134 (>= ?E1 ?J)))
(let (($x175088 (<= ?E1 ?J)))
(let (($x94647 (>= ?D1 ?I)))
(let (($x107658 (<= ?D1 ?I)))
(let (($x573373 (>= ?C1 ?H)))
(let (($x476496 (<= ?C1 ?H)))
(let (($x146052 (>= ?B1 ?G)))
(let (($x415935 (<= ?B1 ?G)))
(let (($x426536 (>= ?A1 ?F)))
(let (($x240495 (<= ?A1 ?F)))
(let (($x871295 (>= ?Z ?E)))
(let (($x243455 (<= ?Z ?E)))
(let (($x575942 (>= ?Y ?D)))
(let (($x642502 (<= ?Y ?D)))
(let (($x246560 (>= ?X ?C)))
(let (($x228634 (<= ?X ?C)))
(let (($x839357 (>= ?W ?B)))
(let (($x104376 (<= ?W ?B)))
(let (($x537522 (>= ?V ?S4)))
(let (($x485935 (<= ?V ?S4)))
(let (($x528715 (and ?B2 $x485935 $x537522 $x104376 $x839357 $x228634 $x246560 $x642502 $x575942 $x243455 $x871295 $x240495 $x426536 $x415935 $x146052 $x476496 $x573373 $x107658 $x94647 $x175088 $x642134 $x927737 $x509229 (<= ?G1 1.0) (>= ?G1 1.0) $x121201 $x135993 $x539325 $x820723 (<= ?J1 2.0) (>= ?J1 2.0) $x175804 $x869241 $x255205 $x910038 (<= ?M1 456.0) (>= ?M1 456.0) $x407415 $x220193 $x106048 $x879963 $x586379 $x925964)))
(let (($x63222 (>= ?M1 ?R)))
(let (($x548677 (<= ?M1 ?R)))
(let (($x626972 (>= ?J1 ?O)))
(let (($x581446 (<= ?J1 ?O)))
(let (($x569237 (>= ?G1 ?L)))
(let (($x454007 (<= ?G1 ?L)))
(let (($x80669 (not ?I2)))
(let (($x533649 (and ?D2 $x80669 $x485935 $x537522 $x104376 $x839357 $x228634 $x246560 $x642502 $x575942 $x243455 $x871295 $x240495 $x426536 $x415935 $x146052 $x476496 $x573373 $x107658 $x94647 $x175088 $x642134 (<= ?F1 1.0) (>= ?F1 1.0) $x454007 $x569237 $x121201 $x135993 $x539325 $x820723 $x581446 $x626972 $x175804 $x869241 $x255205 $x910038 $x548677 $x63222 $x407415 $x220193 $x106048 $x879963 $x586379 $x925964)))
(let (($x927772 (not ?P2)))
(let (($x577173 (and ?K2 $x927772 $x485935 $x537522 $x104376 $x839357 $x228634 $x246560 $x642502 $x575942 $x243455 $x871295 $x240495 $x426536 $x415935 $x146052 $x476496 $x573373 $x107658 $x94647 (<= ?E1 1.0) (>= ?E1 1.0) $x927737 $x509229 $x454007 $x569237 $x121201 $x135993 (<= ?I1 0.0) (>= ?I1 0.0) $x581446 $x626972 $x175804 $x869241 $x255205 $x910038 $x548677 $x63222 $x407415 $x220193 $x106048 $x879963 $x586379 $x925964)))
(let (($x867913 (not ?W2)))
(let (($x606260 (and ?R2 $x867913 $x485935 $x537522 $x104376 $x839357 $x228634 $x246560 $x642502 $x575942 $x243455 $x871295 $x240495 $x426536 $x415935 $x146052 $x476496 $x573373 (<= ?D1 1.0) (>= ?D1 1.0) $x175088 $x642134 $x927737 $x509229 $x454007 $x569237 $x121201 $x135993 $x539325 $x820723 $x581446 $x626972 (<= ?K1 1.0) (>= ?K1 1.0) $x255205 $x910038 $x548677 $x63222 (<= ?N1 123.0) (>= ?N1 123.0) $x106048 $x879963 $x586379 $x925964)))
(let (($x222999 (not ?D3)))
(let (($x593377 (and ?Y2 $x222999 $x485935 $x537522 $x104376 $x839357 $x228634 $x246560 $x642502 $x575942 $x243455 $x871295 $x240495 $x426536 $x415935 $x146052 (<= ?C1 1.0) (>= ?C1 1.0) $x107658 $x94647 $x175088 $x642134 $x927737 $x509229 $x454007 $x569237 $x121201 $x135993 $x539325 $x820723 $x581446 $x626972 $x175804 $x869241 (<= ?L1 2.0) (>= ?L1 2.0) $x548677 $x63222 $x407415 $x220193 (<= ?O1 456.0) (>= ?O1 456.0) $x586379 $x925964)))
(let (($x46243 (not ?K3)))
(let (($x615808 (and ?F3 $x46243 $x485935 $x537522 $x104376 $x839357 $x228634 $x246560 $x642502 $x575942 $x243455 $x871295 $x240495 $x426536 (<= ?B1 1.0) (>= ?B1 1.0) $x476496 $x573373 $x107658 $x94647 $x175088 $x642134 $x927737 $x509229 $x454007 $x569237 $x121201 $x135993 $x539325 $x820723 $x581446 $x626972 $x175804 $x869241 $x255205 $x910038 $x548677 $x63222 $x407415 $x220193 $x106048 $x879963 (<= ?P1 3.0) (>= ?P1 3.0))))
(let (($x343606 (not ?R3)))
(let (($x619490 (and ?M3 $x343606 $x485935 $x537522 $x104376 $x839357 $x228634 $x246560 $x642502 $x575942 $x243455 $x871295 (<= ?A1 1.0) (>= ?A1 1.0) $x415935 $x146052 $x476496 $x573373 $x107658 $x94647 $x175088 $x642134 $x927737 $x509229 $x454007 $x569237 $x121201 $x135993 (<= ?I1 666.0) (>= ?I1 666.0) $x581446 $x626972 $x175804 $x869241 $x255205 $x910038 $x548677 $x63222 $x407415 $x220193 $x106048 $x879963 $x586379 $x925964)))
(let (($x844613 (and ?T3 (not ?Y3) $x485935 $x537522 $x104376 $x839357 $x228634 $x246560 $x642502 $x575942 (<= ?Z 1.0) (>= ?Z 1.0) $x240495 $x426536 $x415935 $x146052 $x476496 $x573373 $x107658 $x94647 $x175088 $x642134 $x927737 $x509229 $x454007 $x569237 $x121201 $x135993 $x539325 $x820723 $x581446 $x626972 $x175804 $x869241 $x255205 $x910038 $x548677 $x63222 $x407415 $x220193 $x106048 $x879963 $x586379 $x925964)))
(let (($x436918 (and ?A4 (not ?F4) $x485935 $x537522 $x104376 $x839357 $x228634 $x246560 (<= ?Y 1.0) (>= ?Y 1.0) $x243455 $x871295 $x240495 $x426536 $x415935 $x146052 $x476496 $x573373 $x107658 $x94647 $x175088 $x642134 $x927737 $x509229 $x454007 $x569237 $x121201 $x135993 $x539325 $x820723 $x581446 $x626972 $x175804 $x869241 (<= ?L1 1.0) (>= ?L1 1.0) $x548677 $x63222 $x407415 $x220193 (<= ?O1 123.0) (>= ?O1 123.0) $x586379 $x925964)))
(let (($x258162 (and ?H4 (not ?M4) $x485935 $x537522 $x104376 $x839357 (<= ?X 1.0) (>= ?X 1.0) $x642502 $x575942 $x243455 $x871295 $x240495 $x426536 $x415935 $x146052 $x476496 $x573373 $x107658 $x94647 $x175088 $x642134 $x927737 $x509229 $x454007 $x569237 (<= ?H1 777.0) (>= ?H1 777.0) $x539325 $x820723 $x581446 $x626972 $x175804 $x869241 $x255205 $x910038 $x548677 $x63222 $x407415 $x220193 $x106048 $x879963 $x586379 $x925964)))
(let (($x306064 (and ?O4 (not ?R4) $x485935 $x537522 (<= ?W 1.0) (>= ?W 1.0) $x228634 $x246560 $x642502 $x575942 $x243455 $x871295 $x240495 $x426536 $x415935 $x146052 $x476496 $x573373 $x107658 $x94647 $x175088 $x642134 $x927737 $x509229 $x454007 $x569237 $x121201 $x135993 $x539325 $x820723 $x581446 $x626972 $x175804 $x869241 (<= ?L1 1.0) (>= ?L1 1.0) $x548677 $x63222 $x407415 $x220193 (<= ?O1 123.0) (>= ?O1 123.0) $x586379 $x925964)))
(let (($x914172 (|cp-rel-bb.i| ?A ?B ?C ?D ?E ?F ?G ?H ?I ?J ?K ?L ?M ?N ?O ?P ?Q ?R ?S ?T ?U)))
(let (($x105287 (and $x914172 (= ?Q4 (= ?B 0.0)) (= ?M4 (= ?C5 0.0)) (= ?J4 (= ?C 0.0)) (= ?F4 (= ?B5 0.0)) (= ?C4 (= ?D 0.0)) (= ?Y3 (= ?A5 0.0)) (= ?V3 (= ?E 0.0)) (= ?R3 (= ?Z4 0.0)) (= ?O3 (= ?F 0.0)) (= ?K3 (= ?Y4 0.0)) (= ?H3 (= ?G 0.0)) (= ?D3 (= ?X4 0.0)) (= ?A3 (= ?H 0.0)) (= ?W2 (= ?W4 0.0)) (= ?T2 (= ?I 0.0)) (= ?P2 (= ?V4 0.0)) (= ?M2 (= ?J 0.0)) (= ?I2 (= ?U4 0.0)) (= ?F2 (= ?K 0.0)) (= ?Z1 (= ?T4 0.0)) (= ?W1 (= ?L 0.0)) (= ?S4 (+ 1.0 ?A)) (= ?T1 (not (<= ?A 3.0))) (or $x306064 $x258162 $x436918 $x844613 $x619490 $x615808 $x593377 $x606260 $x577173 $x533649 $x528715) (or (not ?O4) ?P4) (or (not ?O4) (and ?K4 ?P4 ?Q4)) (or (not ?K4) (and ?L4 (not ?N4)) (and ?N4 (not ?L4))) (or (not ?K4) (and ?H4 ?L4 ?M4) (and ?D4 ?N4 (not ?J4))) (or (not ?H4) ?I4) (or (not ?H4) (and ?D4 ?I4 ?J4)) (or (not ?D4) (and ?E4 (not ?G4)) (and ?G4 (not ?E4))) (or (not ?D4) (and ?A4 ?E4 ?F4) (and ?W3 ?G4 (not ?C4))) (or (not ?A4) ?B4) (or (not ?A4) (and ?W3 ?B4 ?C4)) (or (not ?W3) (and ?X3 (not ?Z3)) (and ?Z3 (not ?X3))) (or (not ?W3) (and ?T3 ?X3 ?Y3) (and ?P3 ?Z3 (not ?V3))) (or (not ?T3) ?U3) (or (not ?T3) (and ?P3 ?U3 ?V3)) (or (not ?P3) (and ?Q3 (not ?S3)) (and ?S3 (not ?Q3))) (or (not ?P3) (and ?M3 ?Q3 ?R3) (and ?I3 ?S3 (not ?O3))) (or (not ?M3) ?N3) (or (not ?M3) (and ?I3 ?N3 ?O3)) (or (not ?I3) (and ?J3 (not ?L3)) (and ?L3 (not ?J3))) (or (not ?I3) (and ?F3 ?J3 ?K3) (and ?B3 ?L3 (not ?H3))) $x193064 (or $x923152 (and ?B3 ?G3 ?H3)) (or (not ?B3) (and ?C3 (not ?E3)) (and ?E3 (not ?C3))) (or (not ?B3) (and ?Y2 ?C3 ?D3) (and ?U2 ?E3 (not ?A3))) (or (not ?Y2) ?Z2) (or (not ?Y2) (and ?U2 ?Z2 ?A3)) (or (not ?U2) (and ?V2 (not ?X2)) (and ?X2 (not ?V2))) (or (not ?U2) (and ?R2 ?V2 ?W2) (and ?N2 ?X2 (not ?T2))) $x213259 (or $x41133 (and ?N2 ?S2 ?T2)) (or (not ?N2) (and ?O2 (not ?Q2)) (and ?Q2 (not ?O2))) (or (not ?N2) (and ?K2 ?O2 ?P2) (and ?G2 ?Q2 (not ?M2))) (or (not ?K2) ?L2) (or (not ?K2) (and ?G2 ?L2 ?M2)) (or (not ?G2) (and ?H2 (not ?J2)) (and ?J2 (not ?H2))) (or (not ?G2) (and ?D2 ?H2 ?I2) (and ?X1 ?J2 (not ?F2))) $x82383 (or $x155188 (and ?X1 ?E2 ?F2)) (or (not ?B2) ?C2) (or (not ?B2) (and ?U1 ?C2 (not ?Z1))) (or (not ?X1) (and ?Y1 (not ?A2)) (and ?A2 (not ?Y1))) (or (not ?X1) (and ?U1 ?Y1 ?Z1) (and ?Q1 ?A2 (not ?W1))) (or (not ?U1) ?V1) (or (not ?U1) (and ?Q1 ?V1 ?W1)) (or (not ?Q1) ?S1) (or (not ?Q1) (and ?R1 ?S1 (not ?T1))) (= ?R4 (= ?D5 0.0)))))
(=> $x105287 $x233125))))))))))))))))))))))))))))))))))))))))))))))))))))))))))))))))))))))
)
(assert (forall ((?A Real) (?B Real) (?C Real) (?D Real) (?E Real) (?F Real) (?G Real) (?H Real) (?I Real) (?J Real) (?K Real) (?L Real) (?M Real) (?N Real) (?O Real) (?P Real) (?Q Real) (?R Real) (?S Real) (?T Real) (?U Real) (?V Bool) (?W Bool) (?X Bool) (?Y Bool) (?Z Bool) (?A1 Bool) (?B1 Bool) (?C1 Bool) (?D1 Bool) (?E1 Bool) (?F1 Bool) (?G1 Bool) (?H1 Bool) (?I1 Bool) (?J1 Bool) (?K1 Bool) (?L1 Bool) (?M1 Bool) (?N1 Bool) (?O1 Bool) (?P1 Bool) (?Q1 Bool) (?R1 Bool) (?S1 Bool) (?T1 Bool) (?U1 Bool) (?V1 Bool) (?W1 Bool) (?X1 Bool) (?Y1 Bool) (?Z1 Bool) (?A2 Bool) (?B2 Bool) (?C2 Bool) (?D2 Bool) (?E2 Bool) (?F2 Bool) (?G2 Bool) (?H2 Bool) (?I2 Bool) (?J2 Bool) (?K2 Bool) (?L2 Bool) (?M2 Bool) (?N2 Bool) (?O2 Bool) (?P2 Bool) (?Q2 Bool) (?R2 Bool) (?S2 Bool) (?T2 Bool) (?U2 Bool) (?V2 Bool) (?W2 Bool) (?X2 Bool) (?Y2 Bool) (?Z2 Bool) (?A3 Bool) (?B3 Bool) (?C3 Bool) (?D3 Bool) (?E3 Bool) (?F3 Bool) (?G3 Bool) (?H3 Bool) (?I3 Bool) (?J3 Bool) (?K3 Bool) (?L3 Bool) (?M3 Bool) (?N3 Bool) (?O3 Bool) (?P3 Bool) (?Q3 Bool) (?R3 Bool) (?S3 Bool) (?T3 Bool) (?U3 Bool) (?V3 Real) (?W3 Real) (?X3 Real) (?Y3 Real) (?Z3 Real) (?A4 Real) (?B4 Real) (?C4 Real) (?D4 Real) (?E4 Real) (?F4 Real) (?G4 Real) (?H4 Bool) (?I4 Real) (?J4 Bool) (?K4 Real) (?L4 Bool) (?M4 Real) (?N4 Real) (?O4 Real) (?P4 Bool) (?Q4 Bool) (?R4 Bool) (?S4 Bool) (?T4 Bool) (?U4 Bool) (?V4 Bool) (?W4 Bool) (?X4 Bool) (?Y4 Bool) (?Z4 Bool) (?A5 Real) (?B5 Real) (?C5 Bool) (?D5 Bool) (?E5 Real) (?F5 Real) (?G5 Bool) (?H5 Bool) (?I5 Bool) (?J5 Bool) (?K5 Bool) (?L5 Bool) (?M5 Bool) (?N5 Bool) (?O5 Real) (?P5 Real) (?Q5 Bool) (?R5 Bool) (?S5 Bool) (?T5 Bool) (?U5 Bool) (?V5 Bool) (?W5 Bool) (?X5 Bool) (?Y5 Bool) (?Z5 Bool) (?A6 Bool) (?B6 Bool) (?C6 Bool) (?D6 Bool) (?E6 Bool) (?F6 Bool) (?G6 Bool) (?H6 Bool) (?I6 Bool) (?J6 Bool) (?K6 Bool) (?L6 Bool) (?M6 Bool) (?N6 Bool) (?O6 Bool) (?P6 Real) (?Q6 Bool) (?R6 Bool) (?S6 Bool) (?T6 Bool) (?U6 Bool) (?V6 Bool) (?W6 Bool) (?X6 Bool) (?Y6 Bool) (?Z6 Real) (?A7 Bool) (?B7 Bool) (?C7 Bool) (?D7 Bool) (?E7 Bool) (?F7 Bool) (?G7 Bool) (?H7 Bool) (?I7 Bool) (?J7 Real) (?K7 Real) (?L7 Real) (?M7 Real) (?N7 Bool) (?O7 Bool) (?P7 Bool) (?Q7 Bool) (?R7 Bool) (?S7 Bool) (?T7 Bool) (?U7 Bool) (?V7 Bool) (?W7 Bool) (?X7 Bool) (?Y7 Bool) (?Z7 Bool) (?A8 Bool) (?B8 Bool) (?C8 Bool) (?D8 Real) (?E8 Bool) (?F8 Bool) (?G8 Bool) (?H8 Bool) (?I8 Bool) (?J8 Bool) (?K8 Bool) (?L8 Bool) (?M8 Bool) (?N8 Bool) (?O8 Real) (?P8 Bool) (?Q8 Bool) (?R8 Bool) (?S8 Bool) (?T8 Bool) (?U8 Bool) (?V8 Bool) (?W8 Bool) (?X8 Bool) (?Y8 Bool) (?Z8 Bool) (?A9 Bool) (?B9 Bool) (?C9 Bool) (?D9 Bool) (?E9 Bool) (?F9 Real) (?G9 Bool) (?H9 Bool) (?I9 Bool) (?J9 Bool) (?K9 Bool) (?L9 Bool) (?M9 Bool) (?N9 Bool) (?O9 Bool) (?P9 Real) (?Q9 Bool) (?R9 Bool) (?S9 Bool) (?T9 Bool) (?U9 Bool) (?V9 Real) (?W9 Bool) (?X9 Bool) (?Y9 Bool) (?Z9 Real) (?A10 Real) (?B10 Bool) (?C10 Bool) (?D10 Bool) (?E10 Bool) (?F10 Bool) (?G10 Bool) (?H10 Bool) (?I10 Bool) (?J10 Bool) (?K10 Bool) (?L10 Bool) (?M10 Bool) (?N10 Bool) (?O10 Bool) (?P10 Bool) (?Q10 Bool) (?R10 Real) (?S10 Real) )(let (($x150290 (|cp-rel-__UFO__0| ?A ?B ?C ?D ?E ?F ?G ?H ?I ?J ?K ?L ?M ?N ?O ?P ?Q ?R ?S ?T ?U ?H4 ?I4 ?J4 ?K4 ?L4 ?M4 ?N4 ?O4)))
(let (($x745604 (or (not ?P4) (and ?R3 ?Q4 ?U3) (and ?N3 ?R4 (not ?T3)) (and ?W ?S4 ?Y))))
(let (($x784877 (or (not ?P4) (and ?Q4 (not ?R4) (not ?S4)) (and ?R4 (not ?Q4) (not ?S4)) (and ?S4 (not ?Q4) (not ?R4)))))
(let (($x579962 (and ?W4 ?C5 ?D5 (<= ?A5 ?E5) (>= ?A5 ?E5) (<= ?B5 ?F5) (>= ?B5 ?F5))))
(let (($x464924 (and ?T4 ?Z4 ?J4 (<= ?A5 ?K4) (>= ?A5 ?K4) (<= ?B5 ?I4) (>= ?B5 ?I4))))
(let (($x268791 (not ?Y4)))
(let (($x482302 (and ?W4 ?S5 (not ?D5) (<= ?O5 ?K4) (>= ?O5 ?K4) (<= ?P5 ?I4) (>= ?P5 ?I4))))
(let (($x824527 (and ?T4 ?R5 (not ?J4) (<= ?O5 ?K4) (>= ?O5 ?K4) (<= ?P5 ?I4) (>= ?P5 ?I4))))
(let (($x853618 (and ?Y4 ?Q5 ?I5 (<= ?O5 ?A5) (>= ?O5 ?A5) (<= ?P5 ?B5) (>= ?P5 ?B5))))
(let (($x878841 (and ?G5 ?N5 (not ?L5) (<= ?O5 ?A5) (>= ?O5 ?A5) (<= ?P5 ?B5) (>= ?P5 ?B5))))
(let (($x403051 (not ?M5)))
(let (($x258193 (or $x403051 (and ?N5 (not ?Q5) (not ?R5) (not ?S5)) (and ?Q5 (not ?N5) (not ?R5) (not ?S5)) (and ?R5 (not ?N5) (not ?Q5) (not ?S5)) (and ?S5 (not ?N5) (not ?Q5) (not ?R5)))))
(let (($x393298 (and ?M5 ?W5 (<= ?M4 ?O5) (>= ?M4 ?O5) (<= ?N4 ?P5) (>= ?N4 ?P5) (<= ?O4 0.0) (>= ?O4 0.0))))
(let (($x61380 (not ?V5)))
(let (($x282890 (and ?J5 ?U5 $x61380 (<= ?M4 ?A5) (>= ?M4 ?A5) (<= ?N4 ?B5) (>= ?N4 ?B5) (<= ?O4 1.0) (>= ?O4 1.0))))
(let (($x611424 (not ?M6)))
(let (($x908033 (or $x611424 (and ?A6 ?N6 ?O6 (<= ?P6 ?M) (>= ?P6 ?M)) (and ?H6 ?Q6 ?R6 (<= ?P6 ?N) (>= ?P6 ?N)))))
(let (($x45090 (not ?S6)))
(let (($x781845 (not ?W6)))
(let (($x437595 (or $x781845 (and ?M6 ?X6 (not ?Y6) (<= ?Z6 ?P6) (>= ?Z6 ?P6)) (and ?K6 ?A7 ?V6 (<= ?Z6 789.0) (>= ?Z6 789.0)))))
(let (($x132695 (>= ?L7 ?M7)))
(let (($x227243 (<= ?L7 ?M7)))
(let (($x520616 (>= ?J7 ?K7)))
(let (($x506858 (<= ?J7 ?K7)))
(let (($x98989 (not ?O6)))
(let (($x148335 (and ?E7 ?N7 (<= ?J7 0.0) (>= ?J7 0.0) (<= ?L7 0.0) (>= ?L7 0.0))))
(let (($x414519 (not ?H7)))
(let (($x371997 (or $x414519 (and ?S6 ?I7 $x506858 $x520616 $x227243 $x132695) $x148335 (and ?B7 ?O7 ?G7 $x506858 $x520616 $x227243 $x132695) (and ?W6 ?P7 ?D7 $x506858 $x520616 $x227243 $x132695) (and ?M6 ?Q7 ?Y6 $x506858 $x520616 $x227243 $x132695) (and ?A6 ?R7 $x98989 $x506858 $x520616 $x227243 $x132695))))
(let (($x271491 (or $x414519 (and ?I7 (not ?N7) (not ?O7) (not ?P7) (not ?Q7) (not ?R7)) (and ?N7 (not ?I7) (not ?O7) (not ?P7) (not ?Q7) (not ?R7)) (and ?O7 (not ?I7) (not ?N7) (not ?P7) (not ?Q7) (not ?R7)) (and ?P7 (not ?I7) (not ?N7) (not ?O7) (not ?Q7) (not ?R7)) (and ?Q7 (not ?I7) (not ?N7) (not ?O7) (not ?P7) (not ?R7)) (and ?R7 (not ?I7) (not ?N7) (not ?O7) (not ?P7) (not ?Q7)))))
(let (($x155188 (not ?S7)))
(let (($x82383 (or $x155188 ?T7)))
(let (($x539183 (not ?A8)))
(let (($x453885 (or $x539183 (and ?V7 ?B8 ?C8 (<= ?D8 ?R) (>= ?D8 ?R)) (and ?Y7 ?E8 ?F8 (<= ?D8 ?T) (>= ?D8 ?T)))))
(let (($x41133 (not ?G8)))
(let (($x213259 (or $x41133 ?H8)))
(let (($x104221 (not ?M8)))
(let (($x301691 (or $x104221 (and ?J8 ?N8 (<= ?O8 1.0) (>= ?O8 1.0)) (and ?G8 ?P8 ?L8 (<= ?O8 ?O4) (>= ?O8 ?O4)) (and ?A8 ?Q8 ?I8 (<= ?O8 ?O4) (>= ?O8 ?O4)) (and ?V7 ?R8 (not ?C8) (<= ?O8 ?O4) (>= ?O8 ?O4)) (and ?Y7 ?S8 (not ?F8) (<= ?O8 ?O4) (>= ?O8 ?O4)) (and ?H7 ?T8 (not ?U7) (<= ?O8 ?O4) (>= ?O8 ?O4)))))
(let (($x626161 (or $x104221 (and ?N8 (not ?P8) (not ?Q8) (not ?R8) (not ?S8) (not ?T8)) (and ?P8 (not ?N8) (not ?Q8) (not ?R8) (not ?S8) (not ?T8)) (and ?Q8 (not ?N8) (not ?P8) (not ?R8) (not ?S8) (not ?T8)) (and ?R8 (not ?N8) (not ?P8) (not ?Q8) (not ?S8) (not ?T8)) (and ?S8 (not ?N8) (not ?P8) (not ?Q8) (not ?R8) (not ?T8)) (and ?T8 (not ?N8) (not ?P8) (not ?Q8) (not ?R8) (not ?S8)))))
(let (($x923152 (not ?U8)))
(let (($x193064 (or $x923152 ?V8)))
(let (($x308973 (not ?C9)))
(let (($x342231 (or $x308973 (and ?X8 ?D9 ?E9 (<= ?F9 ?R) (>= ?F9 ?R)) (and ?A9 ?G9 ?H9 (<= ?F9 ?T) (>= ?F9 ?T)))))
(let (($x822624 (|cp-rel-bb.i| ?A ?B ?C ?D ?E ?F ?G ?H ?I ?J ?K ?L ?M ?N ?O ?P ?Q ?R ?S ?T ?U)))
(let (($x645313 (and $x822624 (= ?O9 (= ?R10 0.0)) (= ?R10 (ite ?Q10 ?U 0.0)) (= ?Q10 (= ?U 2.0)) (= ?K9 (= ?F9 0.0)) (= ?H9 (and ?O10 ?P10)) (= ?P10 (= ?Q 2.0)) (= ?O10 (= ?U 3.0)) (= ?E9 (and ?N10 ?H4)) (= ?N10 (= ?U 1.0)) (= ?Z8 (not (<= 2.0 ?U))) (= ?W8 (= ?O8 0.0)) (= ?L8 (or ?M10 ?L10)) (= ?M10 (not (= ?D8 ?A10))) (= ?L10 (= ?A10 0.0)) (= ?I8 (= ?D8 0.0)) (= ?F8 (and ?J10 ?K10)) (= ?K10 (= ?Q 2.0)) (= ?J10 (= ?U 3.0)) (= ?C8 (and ?I10 ?H4)) (= ?I10 (= ?U 1.0)) (= ?X7 (not (<= 2.0 ?U))) (= ?U7 (= ?J7 0.0)) (= ?G7 (or ?H10 ?F10)) (= ?H10 (or ?G10 ?E10)) (= ?G10 (not (= ?Z6 ?M7))) (= ?F10 (= ?Z6 0.0)) (= ?E10 (= ?M7 0.0)) (= ?D7 (= ?K7 0.0)) (= ?Y6 (= ?P6 0.0)) (= ?V6 (= ?U 3.0)) (= ?R6 (= ?U 2.0)) (= ?J6 (not (<= 3.0 ?U))) (= ?O6 (= ?U 1.0)) (= ?C6 (not (<= 2.0 ?U))) (= ?K7 (ite ?D10 ?M4 1.0)) (= ?M7 (ite ?D10 ?N4 ?S)) (= ?D10 (or ?C10 ?B10)) (= ?C10 (= ?S 0.0)) (= ?B10 (not (= ?U ?P))) (= ?A10 (ite ?L4 ?M ?N)) (= ?Z9 (ite ?Y9 1.0 0.0)) (= ?Y9 (= ?M4 0.0)) (= ?Z5 (= ?U 0.0)) (= ?V5 (or ?W9 ?X9)) (= ?X9 (not (= ?P 1.0))) (= ?W9 (= ?S 0.0)) (= ?L5 (= ?V9 ?M)) (= ?I5 (= ?V9 0.0)) (= ?V9 (ite ?U9 ?S 0.0)) (= ?U9 (= ?P 1.0)) (= ?F5 (ite ?S9 ?I4 0.0)) (= ?E5 (ite ?S9 ?K4 0.0)) (= ?D5 (or ?J4 ?T9)) (= ?T9 (not ?S9)) (= ?S9 (or ?R9 ?J4)) (= ?R9 (or ?Q9 ?L4)) (= ?Q9 (not (= ?N ?I4))) (= ?V4 (or ?J4 ?L4)) (= ?L4 (= ?N 0.0)) (= ?P9 (ite ?J4 1.0 0.0)) (= ?J4 (= ?I4 0.0)) (= ?I4 (ite ?H4 ?R 0.0)) (= ?H4 (= ?O 2.0)) (= ?U3 (= ?G4 0.0)) (= ?T3 (= ?B 0.0)) (= ?P3 (= ?F4 0.0)) (= ?M3 (= ?C 0.0)) (= ?I3 (= ?E4 0.0)) (= ?F3 (= ?D 0.0)) (= ?B3 (= ?D4 0.0)) (= ?Y2 (= ?E 0.0)) (= ?U2 (= ?C4 0.0)) (= ?R2 (= ?F 0.0)) (= ?N2 (= ?B4 0.0)) (= ?K2 (= ?G 0.0)) (= ?G2 (= ?A4 0.0)) (= ?D2 (= ?H 0.0)) (= ?Z1 (= ?Z3 0.0)) (= ?W1 (= ?I 0.0)) (= ?S1 (= ?Y3 0.0)) (= ?P1 (= ?J 0.0)) (= ?L1 (= ?X3 0.0)) (= ?I1 (= ?K 0.0)) (= ?E1 (= ?W3 0.0)) (= ?B1 (= ?L 0.0)) (= ?V3 (+ 1.0 ?A)) (= ?Y (not (<= ?A 3.0))) (or ?M9 (and ?I9 ?O9) (and ?T5 ?Z5)) (or (not ?M9) ?N9) (or (not ?M9) (and ?I9 ?N9 (not ?O9))) (or (not ?I9) (and ?J9 (not ?L9)) (and ?L9 (not ?J9))) (or (not ?I9) (and ?C9 ?J9 (not ?K9)) (and ?M8 ?L9 ?W8)) (or $x308973 (and ?D9 (not ?G9)) (and ?G9 (not ?D9))) $x342231 (or (not ?A9) ?B9) (or (not ?A9) (and ?U8 ?B9 (not ?Z8))) (or (not ?X8) ?Y8) (or (not ?X8) (and ?U8 ?Y8 ?Z8)) $x193064 (or $x923152 (and ?M8 ?V8 (not ?W8))) $x626161 $x301691 (or (not ?J8) ?K8) (or (not ?J8) (and ?G8 ?K8 (not ?L8))) $x213259 (or $x41133 (and ?A8 ?H8 (not ?I8))) (or $x539183 (and ?B8 (not ?E8)) (and ?E8 (not ?B8))) $x453885 (or (not ?Y7) ?Z7) (or (not ?Y7) (and ?S7 ?Z7 (not ?X7))) (or (not ?V7) ?W7) (or (not ?V7) (and ?S7 ?W7 ?X7)) $x82383 (or $x155188 (and ?H7 ?T7 ?U7)) $x271491 $x371997 (or (not ?E7) ?F7) (or (not ?E7) (and ?B7 ?F7 (not ?G7))) (or (not ?B7) ?C7) (or (not ?B7) (and ?W6 ?C7 (not ?D7))) (or $x781845 (and ?X6 (not ?A7)) (and ?A7 (not ?X6))) $x437595 (or $x45090 (and ?T6 (not ?U6)) (and ?U6 (not ?T6))) (or $x45090 (and ?H6 ?T6 (not ?R6)) (and ?K6 ?U6 (not ?V6))) (or $x611424 (and ?N6 (not ?Q6)) (and ?Q6 (not ?N6))) $x908033 (or (not ?K6) ?L6) (or (not ?K6) (and ?F6 ?L6 (not ?J6))) (or (not ?H6) ?I6) (or (not ?H6) (and ?F6 ?I6 ?J6)) (or (not ?F6) ?G6) (or (not ?F6) (and ?D6 ?G6)) (or (not ?D6) ?E6) (or (not ?D6) (and ?X5 ?E6 (not ?C6))) (or (not ?A6) ?B6) (or (not ?A6) (and ?X5 ?B6 ?C6)) (or (not ?X5) ?Y5) (or (not ?X5) (and ?T5 ?Y5 (not ?Z5))) (or (not ?T5) (and ?U5 (not ?W5)) (and ?W5 (not ?U5))) (or (not ?T5) $x282890 $x393298) $x258193 (or $x403051 $x878841 $x853618 $x824527 $x482302) (or (not ?J5) ?K5) (or (not ?J5) (and ?G5 ?K5 ?L5)) (or (not ?G5) ?H5) (or (not ?G5) (and ?Y4 ?H5 (not ?I5))) (or $x268791 (and ?Z4 (not ?C5)) (and ?C5 (not ?Z4))) (or $x268791 $x464924 $x579962) (or (not ?W4) ?X4) (or (not ?W4) (and ?P4 ?X4 (not ?V4))) (or (not ?T4) ?U4) (or (not ?T4) (and ?P4 ?U4 ?V4)) $x784877 $x745604 (or (not ?R3) ?S3) (or (not ?R3) (and ?N3 ?S3 ?T3)) (or (not ?N3) (and ?O3 (not ?Q3)) (and ?Q3 (not ?O3))) (or (not ?N3) (and ?K3 ?O3 ?P3) (and ?G3 ?Q3 (not ?M3))) (or (not ?K3) ?L3) (or (not ?K3) (and ?G3 ?L3 ?M3)) (or (not ?G3) (and ?H3 (not ?J3)) (and ?J3 (not ?H3))) (or (not ?G3) (and ?D3 ?H3 ?I3) (and ?Z2 ?J3 (not ?F3))) (or (not ?D3) ?E3) (or (not ?D3) (and ?Z2 ?E3 ?F3)) (or (not ?Z2) (and ?A3 (not ?C3)) (and ?C3 (not ?A3))) (or (not ?Z2) (and ?W2 ?A3 ?B3) (and ?S2 ?C3 (not ?Y2))) (or (not ?W2) ?X2) (or (not ?W2) (and ?S2 ?X2 ?Y2)) (or (not ?S2) (and ?T2 (not ?V2)) (and ?V2 (not ?T2))) (or (not ?S2) (and ?P2 ?T2 ?U2) (and ?L2 ?V2 (not ?R2))) (or (not ?P2) ?Q2) (or (not ?P2) (and ?L2 ?Q2 ?R2)) (or (not ?L2) (and ?M2 (not ?O2)) (and ?O2 (not ?M2))) (or (not ?L2) (and ?I2 ?M2 ?N2) (and ?E2 ?O2 (not ?K2))) (or (not ?I2) ?J2) (or (not ?I2) (and ?E2 ?J2 ?K2)) (or (not ?E2) (and ?F2 (not ?H2)) (and ?H2 (not ?F2))) (or (not ?E2) (and ?B2 ?F2 ?G2) (and ?X1 ?H2 (not ?D2))) (or (not ?B2) ?C2) (or (not ?B2) (and ?X1 ?C2 ?D2)) (or (not ?X1) (and ?Y1 (not ?A2)) (and ?A2 (not ?Y1))) (or (not ?X1) (and ?U1 ?Y1 ?Z1) (and ?Q1 ?A2 (not ?W1))) (or (not ?U1) ?V1) (or (not ?U1) (and ?Q1 ?V1 ?W1)) (or (not ?Q1) (and ?R1 (not ?T1)) (and ?T1 (not ?R1))) (or (not ?Q1) (and ?N1 ?R1 ?S1) (and ?J1 ?T1 (not ?P1))) (or (not ?N1) ?O1) (or (not ?N1) (and ?J1 ?O1 ?P1)) (or (not ?J1) (and ?K1 (not ?M1)) (and ?M1 (not ?K1))) (or (not ?J1) (and ?G1 ?K1 ?L1) (and ?C1 ?M1 (not ?I1))) (or (not ?G1) ?H1) (or (not ?G1) (and ?C1 ?H1 ?I1)) (or (not ?C1) (and ?D1 (not ?F1)) (and ?F1 (not ?D1))) (or (not ?C1) (and ?Z ?D1 ?E1) (and ?V ?F1 (not ?B1))) (or (not ?Z) ?A1) (or (not ?Z) (and ?V ?A1 ?B1)) (or (not ?V) ?X) (or (not ?V) (and ?W ?X (not ?Y))) (= ?S10 (ite ?U7 1.0 0.0)))))
(=> $x645313 $x150290))))))))))))))))))))))))))))))))))))))))))))))
)
(assert (forall ((?A Bool) (?B Real) (?C Bool) (?D Real) (?E Bool) (?F Real) (?G Real) (?H Real) (?I Real) (?J Real) (?K Real) (?L Real) (?M Real) (?N Real) (?O Real) (?P Real) (?Q Real) (?R Real) (?S Real) (?T Real) (?U Real) (?V Real) (?W Real) (?X Real) (?Y Real) (?Z Real) (?A1 Real) (?B1 Real) (?C1 Real) (?D1 Bool) )(let (($x576648 (|cp-rel-__UFO__0| ?I ?J ?K ?L ?M ?N ?O ?P ?Q ?R ?S ?T ?U ?V ?W ?X ?Y ?Z ?A1 ?B1 ?C1 ?A ?B ?C ?D ?E ?F ?G ?H)))
(=> (and $x576648 (= ?D1 true)) $x576648)))
)
(assert (forall ((?A Real) (?B Real) (?C Real) (?D Real) (?E Real) (?F Real) (?G Real) (?H Real) (?I Real) (?J Real) (?K Real) (?L Real) (?M Real) (?N Real) (?O Real) (?P Real) (?Q Real) (?R Real) (?S Real) (?T Real) (?U Real) (?V Bool) (?W Bool) (?X Bool) (?Y Bool) (?Z Bool) (?A1 Bool) (?B1 Bool) (?C1 Bool) (?D1 Bool) (?E1 Bool) (?F1 Bool) (?G1 Bool) (?H1 Bool) (?I1 Bool) (?J1 Bool) (?K1 Bool) (?L1 Bool) (?M1 Bool) (?N1 Bool) (?O1 Bool) (?P1 Bool) (?Q1 Bool) (?R1 Bool) (?S1 Bool) (?T1 Bool) (?U1 Bool) (?V1 Bool) (?W1 Bool) (?X1 Bool) (?Y1 Bool) (?Z1 Bool) (?A2 Bool) (?B2 Bool) (?C2 Bool) (?D2 Bool) (?E2 Bool) (?F2 Bool) (?G2 Bool) (?H2 Bool) (?I2 Bool) (?J2 Bool) (?K2 Bool) (?L2 Bool) (?M2 Bool) (?N2 Bool) (?O2 Bool) (?P2 Bool) (?Q2 Bool) (?R2 Bool) (?S2 Bool) (?T2 Bool) (?U2 Bool) (?V2 Bool) (?W2 Bool) (?X2 Bool) (?Y2 Bool) (?Z2 Bool) (?A3 Bool) (?B3 Bool) (?C3 Bool) (?D3 Bool) (?E3 Bool) (?F3 Bool) (?G3 Bool) (?H3 Bool) (?I3 Bool) (?J3 Bool) (?K3 Bool) (?L3 Bool) (?M3 Bool) (?N3 Bool) (?O3 Bool) (?P3 Bool) (?Q3 Bool) (?R3 Bool) (?S3 Bool) (?T3 Bool) (?U3 Bool) (?V3 Real) (?W3 Real) (?X3 Real) (?Y3 Real) (?Z3 Real) (?A4 Real) (?B4 Real) (?C4 Real) (?D4 Real) (?E4 Real) (?F4 Real) (?G4 Real) (?H4 Bool) (?I4 Real) (?J4 Bool) (?K4 Real) (?L4 Bool) (?M4 Real) (?N4 Real) (?O4 Real) (?P4 Bool) (?Q4 Bool) (?R4 Bool) (?S4 Bool) (?T4 Bool) (?U4 Bool) (?V4 Bool) (?W4 Bool) (?X4 Bool) (?Y4 Bool) (?Z4 Bool) (?A5 Real) (?B5 Real) (?C5 Bool) (?D5 Bool) (?E5 Real) (?F5 Real) (?G5 Bool) (?H5 Bool) (?I5 Bool) (?J5 Bool) (?K5 Bool) (?L5 Bool) (?M5 Bool) (?N5 Bool) (?O5 Real) (?P5 Real) (?Q5 Bool) (?R5 Bool) (?S5 Bool) (?T5 Bool) (?U5 Bool) (?V5 Bool) (?W5 Bool) (?X5 Bool) (?Y5 Bool) (?Z5 Bool) (?A6 Bool) (?B6 Bool) (?C6 Bool) (?D6 Bool) (?E6 Bool) (?F6 Bool) (?G6 Bool) (?H6 Bool) (?I6 Bool) (?J6 Bool) (?K6 Bool) (?L6 Bool) (?M6 Bool) (?N6 Bool) (?O6 Bool) (?P6 Real) (?Q6 Bool) (?R6 Bool) (?S6 Bool) (?T6 Bool) (?U6 Bool) (?V6 Bool) (?W6 Bool) (?X6 Bool) (?Y6 Bool) (?Z6 Real) (?A7 Bool) (?B7 Bool) (?C7 Bool) (?D7 Bool) (?E7 Bool) (?F7 Bool) (?G7 Bool) (?H7 Bool) (?I7 Bool) (?J7 Real) (?K7 Real) (?L7 Real) (?M7 Real) (?N7 Bool) (?O7 Bool) (?P7 Bool) (?Q7 Bool) (?R7 Bool) (?S7 Bool) (?T7 Bool) (?U7 Bool) (?V7 Bool) (?W7 Bool) (?X7 Bool) (?Y7 Bool) (?Z7 Bool) (?A8 Bool) (?B8 Bool) (?C8 Bool) (?D8 Real) (?E8 Bool) (?F8 Bool) (?G8 Bool) (?H8 Bool) (?I8 Bool) (?J8 Bool) (?K8 Bool) (?L8 Bool) (?M8 Bool) (?N8 Bool) (?O8 Real) (?P8 Bool) (?Q8 Bool) (?R8 Bool) (?S8 Bool) (?T8 Bool) (?U8 Bool) (?V8 Bool) (?W8 Bool) (?X8 Bool) (?Y8 Bool) (?Z8 Bool) (?A9 Bool) (?B9 Bool) (?C9 Bool) (?D9 Bool) (?E9 Bool) (?F9 Real) (?G9 Bool) (?H9 Bool) (?I9 Bool) (?J9 Real) (?K9 Bool) (?L9 Bool) (?M9 Bool) (?N9 Bool) (?O9 Bool) (?P9 Real) (?Q9 Bool) (?R9 Bool) (?S9 Bool) (?T9 Real) (?U9 Real) (?V9 Bool) (?W9 Bool) (?X9 Bool) (?Y9 Bool) (?Z9 Bool) (?A10 Bool) (?B10 Bool) (?C10 Bool) (?D10 Bool) (?E10 Bool) (?F10 Bool) (?G10 Bool) (?H10 Bool) (?I10 Bool) (?J10 Bool) )(let (($x268791 (not ?P4)))
(let (($x649580 (or $x268791 (and ?R3 ?Q4 ?U3) (and ?N3 ?R4 (not ?T3)) (and ?W ?S4 ?Y))))
(let (($x922756 (or $x268791 (and ?Q4 (not ?R4) (not ?S4)) (and ?R4 (not ?Q4) (not ?S4)) (and ?S4 (not ?Q4) (not ?R4)))))
(let (($x508026 (and ?W4 ?C5 ?D5 (<= ?A5 ?E5) (>= ?A5 ?E5) (<= ?B5 ?F5) (>= ?B5 ?F5))))
(let (($x77150 (and ?T4 ?Z4 ?J4 (<= ?A5 ?K4) (>= ?A5 ?K4) (<= ?B5 ?I4) (>= ?B5 ?I4))))
(let (($x403051 (not ?D5)))
(let (($x851477 (and ?W4 ?S5 $x403051 (<= ?O5 ?K4) (>= ?O5 ?K4) (<= ?P5 ?I4) (>= ?P5 ?I4))))
(let (($x38494 (not ?J4)))
(let (($x917125 (and ?T4 ?R5 $x38494 (<= ?O5 ?K4) (>= ?O5 ?K4) (<= ?P5 ?I4) (>= ?P5 ?I4))))
(let (($x237030 (and ?Y4 ?Q5 ?I5 (<= ?O5 ?A5) (>= ?O5 ?A5) (<= ?P5 ?B5) (>= ?P5 ?B5))))
(let (($x310179 (and ?G5 ?N5 (not ?L5) (<= ?O5 ?A5) (>= ?O5 ?A5) (<= ?P5 ?B5) (>= ?P5 ?B5))))
(let (($x61380 (not ?M5)))
(let (($x538089 (or $x61380 (and ?N5 (not ?Q5) (not ?R5) (not ?S5)) (and ?Q5 (not ?N5) (not ?R5) (not ?S5)) (and ?R5 (not ?N5) (not ?Q5) (not ?S5)) (and ?S5 (not ?N5) (not ?Q5) (not ?R5)))))
(let (($x76794 (and ?M5 ?W5 (<= ?M4 ?O5) (>= ?M4 ?O5) (<= ?N4 ?P5) (>= ?N4 ?P5) (<= ?O4 0.0) (>= ?O4 0.0))))
(let (($x577455 (and ?J5 ?U5 (not ?V5) (<= ?M4 ?A5) (>= ?M4 ?A5) (<= ?N4 ?B5) (>= ?N4 ?B5) (<= ?O4 1.0) (>= ?O4 1.0))))
(let (($x67784 (not ?T5)))
(let (($x531288 (not ?M6)))
(let (($x447197 (or $x531288 (and ?A6 ?N6 ?O6 (<= ?P6 ?M) (>= ?P6 ?M)) (and ?H6 ?Q6 ?R6 (<= ?P6 ?N) (>= ?P6 ?N)))))
(let (($x97387 (not ?S6)))
(let (($x868040 (not ?W6)))
(let (($x514214 (or $x868040 (and ?M6 ?X6 (not ?Y6) (<= ?Z6 ?P6) (>= ?Z6 ?P6)) (and ?K6 ?A7 ?V6 (<= ?Z6 789.0) (>= ?Z6 789.0)))))
(let (($x625828 (>= ?L7 ?M7)))
(let (($x849166 (<= ?L7 ?M7)))
(let (($x304344 (>= ?J7 ?K7)))
(let (($x606369 (<= ?J7 ?K7)))
(let (($x376381 (and ?E7 ?N7 (<= ?J7 0.0) (>= ?J7 0.0) (<= ?L7 0.0) (>= ?L7 0.0))))
(let (($x494419 (not ?H7)))
(let (($x410484 (or $x494419 (and ?S6 ?I7 $x606369 $x304344 $x849166 $x625828) $x376381 (and ?B7 ?O7 ?G7 $x606369 $x304344 $x849166 $x625828) (and ?W6 ?P7 ?D7 $x606369 $x304344 $x849166 $x625828) (and ?M6 ?Q7 ?Y6 $x606369 $x304344 $x849166 $x625828) (and ?A6 ?R7 (not ?O6) $x606369 $x304344 $x849166 $x625828))))
(let (($x877137 (or $x494419 (and ?I7 (not ?N7) (not ?O7) (not ?P7) (not ?Q7) (not ?R7)) (and ?N7 (not ?I7) (not ?O7) (not ?P7) (not ?Q7) (not ?R7)) (and ?O7 (not ?I7) (not ?N7) (not ?P7) (not ?Q7) (not ?R7)) (and ?P7 (not ?I7) (not ?N7) (not ?O7) (not ?Q7) (not ?R7)) (and ?Q7 (not ?I7) (not ?N7) (not ?O7) (not ?P7) (not ?R7)) (and ?R7 (not ?I7) (not ?N7) (not ?O7) (not ?P7) (not ?Q7)))))
(let (($x413604 (not ?A8)))
(let (($x537801 (or $x413604 (and ?V7 ?B8 ?C8 (<= ?D8 ?R) (>= ?D8 ?R)) (and ?Y7 ?E8 ?F8 (<= ?D8 ?T) (>= ?D8 ?T)))))
(let (($x123326 (or (not ?M8) (and ?J8 ?N8 (<= ?O8 1.0) (>= ?O8 1.0)) (and ?G8 ?P8 ?L8 (<= ?O8 ?O4) (>= ?O8 ?O4)) (and ?A8 ?Q8 ?I8 (<= ?O8 ?O4) (>= ?O8 ?O4)) (and ?V7 ?R8 (not ?C8) (<= ?O8 ?O4) (>= ?O8 ?O4)) (and ?Y7 ?S8 (not ?F8) (<= ?O8 ?O4) (>= ?O8 ?O4)) (and ?H7 ?T8 (not ?U7) (<= ?O8 ?O4) (>= ?O8 ?O4)))))
(let (($x66412 (or (not ?M8) (and ?N8 (not ?P8) (not ?Q8) (not ?R8) (not ?S8) (not ?T8)) (and ?P8 (not ?N8) (not ?Q8) (not ?R8) (not ?S8) (not ?T8)) (and ?Q8 (not ?N8) (not ?P8) (not ?R8) (not ?S8) (not ?T8)) (and ?R8 (not ?N8) (not ?P8) (not ?Q8) (not ?S8) (not ?T8)) (and ?S8 (not ?N8) (not ?P8) (not ?Q8) (not ?R8) (not ?T8)) (and ?T8 (not ?N8) (not ?P8) (not ?Q8) (not ?R8) (not ?S8)))))
(let (($x868084 (not ?C9)))
(let (($x576615 (or $x868084 (and ?X8 ?D9 ?E9 (<= ?F9 ?R) (>= ?F9 ?R)) (and ?A9 ?G9 ?H9 (<= ?F9 ?T) (>= ?F9 ?T)))))
(let (($x270896 (or (and ?C9 ?I9) (and ?X8 (not ?E9)) (and ?A9 (not ?H9)) (and ?J5 ?V5))))
(let (($x537842 (|cp-rel-bb.i| ?A ?B ?C ?D ?E ?F ?G ?H ?I ?J ?K ?L ?M ?N ?O ?P ?Q ?R ?S ?T ?U)))
(let (($x84542 (and $x537842 (= ?H9 (and ?I10 ?J10)) (= ?J10 (= ?Q 2.0)) (= ?I10 (= ?U 3.0)) (= ?E9 (and ?H10 ?H4)) (= ?H10 (= ?U 1.0)) (= ?Z8 (not (<= 2.0 ?U))) (= ?W8 (= ?O8 0.0)) (= ?L8 (or ?G10 ?F10)) (= ?G10 (not (= ?D8 ?U9))) (= ?F10 (= ?U9 0.0)) (= ?I8 (= ?D8 0.0)) (= ?F8 (and ?D10 ?E10)) (= ?E10 (= ?Q 2.0)) (= ?D10 (= ?U 3.0)) (= ?C8 (and ?C10 ?H4)) (= ?C10 (= ?U 1.0)) (= ?X7 (not (<= 2.0 ?U))) (= ?U7 (= ?J7 0.0)) (= ?G7 (or ?B10 ?Z9)) (= ?B10 (or ?A10 ?Y9)) (= ?A10 (not (= ?Z6 ?M7))) (= ?Z9 (= ?Z6 0.0)) (= ?Y9 (= ?M7 0.0)) (= ?D7 (= ?K7 0.0)) (= ?Y6 (= ?P6 0.0)) (= ?V6 (= ?U 3.0)) (= ?R6 (= ?U 2.0)) (= ?J6 (not (<= 3.0 ?U))) (= ?O6 (= ?U 1.0)) (= ?C6 (not (<= 2.0 ?U))) (= ?K7 (ite ?X9 ?M4 1.0)) (= ?M7 (ite ?X9 ?N4 ?S)) (= ?X9 (or ?W9 ?V9)) (= ?W9 (= ?S 0.0)) (= ?V9 (not (= ?U ?P))) (= ?U9 (ite ?L4 ?M ?N)) (= ?T9 (ite ?S9 1.0 0.0)) (= ?S9 (= ?M4 0.0)) (= ?Z5 (= ?U 0.0)) (= ?V5 (or ?Q9 ?R9)) (= ?R9 (not (= ?P 1.0))) (= ?Q9 (= ?S 0.0)) (= ?L5 (= ?P9 ?M)) (= ?I5 (= ?P9 0.0)) (= ?P9 (ite ?O9 ?S 0.0)) (= ?O9 (= ?P 1.0)) (= ?F5 (ite ?M9 ?I4 0.0)) (= ?E5 (ite ?M9 ?K4 0.0)) (= ?D5 (or ?J4 ?N9)) (= ?N9 (not ?M9)) (= ?M9 (or ?L9 ?J4)) (= ?L9 (or ?K9 ?L4)) (= ?K9 (not (= ?N ?I4))) (= ?V4 (or ?J4 ?L4)) (= ?L4 (= ?N 0.0)) (= ?J9 (ite ?J4 1.0 0.0)) (= ?J4 (= ?I4 0.0)) (= ?I4 (ite ?H4 ?R 0.0)) (= ?H4 (= ?O 2.0)) (= ?U3 (= ?G4 0.0)) (= ?T3 (= ?B 0.0)) (= ?P3 (= ?F4 0.0)) (= ?M3 (= ?C 0.0)) (= ?I3 (= ?E4 0.0)) (= ?F3 (= ?D 0.0)) (= ?B3 (= ?D4 0.0)) (= ?Y2 (= ?E 0.0)) (= ?U2 (= ?C4 0.0)) (= ?R2 (= ?F 0.0)) (= ?N2 (= ?B4 0.0)) (= ?K2 (= ?G 0.0)) (= ?G2 (= ?A4 0.0)) (= ?D2 (= ?H 0.0)) (= ?Z1 (= ?Z3 0.0)) (= ?W1 (= ?I 0.0)) (= ?S1 (= ?Y3 0.0)) (= ?P1 (= ?J 0.0)) (= ?L1 (= ?X3 0.0)) (= ?I1 (= ?K 0.0)) (= ?E1 (= ?W3 0.0)) (= ?B1 (= ?L 0.0)) (= ?V3 (+ 1.0 ?A)) (= ?Y (not (<= ?A 3.0))) $x270896 (or $x868084 (and ?D9 (not ?G9)) (and ?G9 (not ?D9))) $x576615 (or (not ?A9) ?B9) (or (not ?A9) (and ?U8 ?B9 (not ?Z8))) (or (not ?X8) ?Y8) (or (not ?X8) (and ?U8 ?Y8 ?Z8)) (or (not ?U8) ?V8) (or (not ?U8) (and ?M8 ?V8 (not ?W8))) $x66412 $x123326 (or (not ?J8) ?K8) (or (not ?J8) (and ?G8 ?K8 (not ?L8))) (or (not ?G8) ?H8) (or (not ?G8) (and ?A8 ?H8 (not ?I8))) (or $x413604 (and ?B8 (not ?E8)) (and ?E8 (not ?B8))) $x537801 (or (not ?Y7) ?Z7) (or (not ?Y7) (and ?S7 ?Z7 (not ?X7))) (or (not ?V7) ?W7) (or (not ?V7) (and ?S7 ?W7 ?X7)) (or (not ?S7) ?T7) (or (not ?S7) (and ?H7 ?T7 ?U7)) $x877137 $x410484 (or (not ?E7) ?F7) (or (not ?E7) (and ?B7 ?F7 (not ?G7))) (or (not ?B7) ?C7) (or (not ?B7) (and ?W6 ?C7 (not ?D7))) (or $x868040 (and ?X6 (not ?A7)) (and ?A7 (not ?X6))) $x514214 (or $x97387 (and ?T6 (not ?U6)) (and ?U6 (not ?T6))) (or $x97387 (and ?H6 ?T6 (not ?R6)) (and ?K6 ?U6 (not ?V6))) (or $x531288 (and ?N6 (not ?Q6)) (and ?Q6 (not ?N6))) $x447197 (or (not ?K6) ?L6) (or (not ?K6) (and ?F6 ?L6 (not ?J6))) (or (not ?H6) ?I6) (or (not ?H6) (and ?F6 ?I6 ?J6)) (or (not ?F6) ?G6) (or (not ?F6) (and ?D6 ?G6)) (or (not ?D6) ?E6) (or (not ?D6) (and ?X5 ?E6 (not ?C6))) (or (not ?A6) ?B6) (or (not ?A6) (and ?X5 ?B6 ?C6)) (or (not ?X5) ?Y5) (or (not ?X5) (and ?T5 ?Y5 (not ?Z5))) (or $x67784 (and ?U5 (not ?W5)) (and ?W5 (not ?U5))) (or $x67784 $x577455 $x76794) $x538089 (or $x61380 $x310179 $x237030 $x917125 $x851477) (or (not ?J5) ?K5) (or (not ?J5) (and ?G5 ?K5 ?L5)) (or (not ?G5) ?H5) (or (not ?G5) (and ?Y4 ?H5 (not ?I5))) (or (not ?Y4) (and ?Z4 (not ?C5)) (and ?C5 (not ?Z4))) (or (not ?Y4) $x77150 $x508026) (or (not ?W4) ?X4) (or (not ?W4) (and ?P4 ?X4 (not ?V4))) (or (not ?T4) ?U4) (or (not ?T4) (and ?P4 ?U4 ?V4)) $x922756 $x649580 (or (not ?R3) ?S3) (or (not ?R3) (and ?N3 ?S3 ?T3)) (or (not ?N3) (and ?O3 (not ?Q3)) (and ?Q3 (not ?O3))) (or (not ?N3) (and ?K3 ?O3 ?P3) (and ?G3 ?Q3 (not ?M3))) (or (not ?K3) ?L3) (or (not ?K3) (and ?G3 ?L3 ?M3)) (or (not ?G3) (and ?H3 (not ?J3)) (and ?J3 (not ?H3))) (or (not ?G3) (and ?D3 ?H3 ?I3) (and ?Z2 ?J3 (not ?F3))) (or (not ?D3) ?E3) (or (not ?D3) (and ?Z2 ?E3 ?F3)) (or (not ?Z2) (and ?A3 (not ?C3)) (and ?C3 (not ?A3))) (or (not ?Z2) (and ?W2 ?A3 ?B3) (and ?S2 ?C3 (not ?Y2))) (or (not ?W2) ?X2) (or (not ?W2) (and ?S2 ?X2 ?Y2)) (or (not ?S2) (and ?T2 (not ?V2)) (and ?V2 (not ?T2))) (or (not ?S2) (and ?P2 ?T2 ?U2) (and ?L2 ?V2 (not ?R2))) (or (not ?P2) ?Q2) (or (not ?P2) (and ?L2 ?Q2 ?R2)) (or (not ?L2) (and ?M2 (not ?O2)) (and ?O2 (not ?M2))) (or (not ?L2) (and ?I2 ?M2 ?N2) (and ?E2 ?O2 (not ?K2))) (or (not ?I2) ?J2) (or (not ?I2) (and ?E2 ?J2 ?K2)) (or (not ?E2) (and ?F2 (not ?H2)) (and ?H2 (not ?F2))) (or (not ?E2) (and ?B2 ?F2 ?G2) (and ?X1 ?H2 (not ?D2))) (or (not ?B2) ?C2) (or (not ?B2) (and ?X1 ?C2 ?D2)) (or (not ?X1) (and ?Y1 (not ?A2)) (and ?A2 (not ?Y1))) (or (not ?X1) (and ?U1 ?Y1 ?Z1) (and ?Q1 ?A2 (not ?W1))) (or (not ?U1) ?V1) (or (not ?U1) (and ?Q1 ?V1 ?W1)) (or (not ?Q1) (and ?R1 (not ?T1)) (and ?T1 (not ?R1))) (or (not ?Q1) (and ?N1 ?R1 ?S1) (and ?J1 ?T1 (not ?P1))) (or (not ?N1) ?O1) (or (not ?N1) (and ?J1 ?O1 ?P1)) (or (not ?J1) (and ?K1 (not ?M1)) (and ?M1 (not ?K1))) (or (not ?J1) (and ?G1 ?K1 ?L1) (and ?C1 ?M1 (not ?I1))) (or (not ?G1) ?H1) (or (not ?G1) (and ?C1 ?H1 ?I1)) (or (not ?C1) (and ?D1 (not ?F1)) (and ?F1 (not ?D1))) (or (not ?C1) (and ?Z ?D1 ?E1) (and ?V ?F1 (not ?B1))) (or (not ?Z) ?A1) (or (not ?Z) (and ?V ?A1 ?B1)) (or (not ?V) ?X) (or (not ?V) (and ?W ?X (not ?Y))) (= ?I9 (= ?F9 0.0)))))
(=> $x84542 |cp-rel-UnifiedReturnBlock|))))))))))))))))))))))))))))))))))))))))
)
(assert (not cp-rel-UnifiedReturnBlock))
(check-sat)
